
  12    4
  10   10   10   10

   0   0   0   0   0   2 2 3 
   4  10  10  10  10   4 8 6 5 4 
   5  10  10  10  10   3 8 6 4 
   6  10  10  10  10   2 9 7 
   3  10  10  10  10   2 9 7 
   5  10  10  10  10   1 7 
   8  10  10  10  10   2 11 10 
   6  10  10  10  10   2 11 10 
   8  10  10  10  10   1 10 
   3  10  10  10  10   1 12
   7  10  10  10  10   1 12
   0   0   0   0   0   0 
